&CONTROL
  calculation = 'relax'
  etot_conv_thr =   2.9600000000d-03
  forc_conv_thr =   1.0000000000d-04
  outdir = './out/'
  prefix = 'aiida'
  pseudo_dir = './pseudo/'
  tprnfor = .true.
  tstress = .true.
  verbosity = 'high'
/
&SYSTEM
  degauss =   2.0000000000d-02
  ecutrho =   3.2000000000d+02
  ecutwfc =   4.0000000000d+01
  ibrav = 8
     a  = 12.29
     b  = 35.683
     c  = 13.591
   nat = 295
  nosym = .false.
  ntyp = 4
  occupations = 'smearing'
  smearing = 'cold'
/
&ELECTRONS
  conv_thr =   5.9200000000d-08
  electron_maxstep = 80
  mixing_beta =   4.0000000000d-01
/
&IONS
 ion_dynamics = 'bfgs'
/
ATOMIC_SPECIES
Ge     72.64 ge_pbe_v1.4.uspp.F.UPF
Li     6.941 li_pbe_v1.4.uspp.F.UPF
P      30.973761 P.pbe-n-rrkjus_psl.1.0.0.UPF
S      32.065 s_pbe_v1.4.uspp.F.UPF
ATOMIC_POSITIONS crystal
Li           0.2460500000       0.6824900000       0.2280200000
Li           0.7460500000       0.6824900000       0.7719800000
Li           0.2539500000       0.3175100000       0.2280200000
Li           0.2460500000       0.3175100000       0.7280200000
Li           0.7539500000       0.6824900000       0.2719800000
Li           0.2539500000       0.6824900000       0.7280200000
Li           0.7460500000       0.3175100000       0.2719800000
Li           0.2539500000       0.8175100000       0.7719800000
Li           0.7460500000       0.1824900000       0.2280200000
Li           0.2460500000       0.1824900000       0.7719800000
Li           0.7539500000       0.8175100000       0.2280200000
Li           0.7460500000       0.8175100000       0.7280200000
Li           0.2539500000       0.1824900000       0.2719800000
Li           0.7539500000       0.1824900000       0.7280200000
Li           0.2460500000       0.8175100000       0.2719800000
Li           0.5000000000       0.5821200000       0.2500000000
Li           0.5000000000       0.4178800000       0.7500000000
Li           0.0000000000       0.4178800000       0.2500000000
Li           0.0000000000       0.5821200000       0.7500000000
Li           0.0000000000       0.0821200000       0.2500000000
Li           0.0000000000       0.9178800000       0.7500000000
Li           0.5000000000       0.9178800000       0.2500000000
Li           0.5000000000       0.0821200000       0.7500000000
Li           0.3416900000       0.5892900000       0.7199800000
Li           0.6583100000       0.4107100000       0.2800200000
Li           0.1583100000       0.4107100000       0.7199800000
Li           0.8416900000       0.5892900000       0.2800200000
Li           0.6583100000       0.5892900000       0.7800200000
Li           0.3416900000       0.4107100000       0.2199800000
Li           0.8416900000       0.4107100000       0.7800200000
Li           0.1583100000       0.5892900000       0.2199800000
Li           0.8416900000       0.0892900000       0.7199800000
Li           0.1583100000       0.9107100000       0.2800200000
Li           0.6583100000       0.9107100000       0.7199800000
Li           0.3416900000       0.0892900000       0.2800200000
Li           0.1583100000       0.0892900000       0.7800200000
Li           0.8416900000       0.9107100000       0.2199800000
Li           0.3416900000       0.9107100000       0.7800200000
Li           0.6583100000       0.0892900000       0.2199800000
Li           0.4974100000       0.5563300000       0.9568500000
Li           0.5025900000       0.4436700000       0.0431500000
Li           0.0025900000       0.4436700000       0.9568500000
Li           0.9974100000       0.5563300000       0.0431500000
Li           0.5025900000       0.5563300000       0.5431500000
Li           0.4974100000       0.4436700000       0.4568500000
Li           0.9974100000       0.4436700000       0.5431500000
Li           0.0025900000       0.5563300000       0.4568500000
Li           0.9974100000       0.0563300000       0.9568500000
Li           0.0025900000       0.9436700000       0.0431500000
Li           0.5025900000       0.9436700000       0.9568500000
Li           0.4974100000       0.0563300000       0.0431500000
Li           0.0025900000       0.0563300000       0.5431500000
Li           0.9974100000       0.9436700000       0.4568500000
Li           0.4974100000       0.9436700000       0.5431500000
Li           0.5025900000       0.0563300000       0.4568500000
Li           0.0000000000       0.7500000000       0.2500000000
Li           0.0000000000       0.2500000000       0.7500000000
Li           0.5000000000       0.2500000000       0.2500000000
Li           0.5000000000       0.7500000000       0.7500000000
Li           0.3787300000       0.7465600000       0.4938500000
Li           0.6212700000       0.2534400000       0.5061500000
Li           0.1212700000       0.2534400000       0.4938500000
Li           0.8787300000       0.7465600000       0.5061500000
Li           0.6212700000       0.7465600000       0.0061500000
Li           0.3787300000       0.2534400000       0.9938500000
Li           0.8787300000       0.2534400000       0.0061500000
Li           0.1212700000       0.7465600000       0.9938500000
Li           0.8787300000       0.2465600000       0.4938500000
Li           0.1212700000       0.7534400000       0.5061500000
Li           0.6212700000       0.7534400000       0.4938500000
Li           0.3787300000       0.2465600000       0.5061500000
Li           0.1212700000       0.2465600000       0.0061500000
Li           0.8787300000       0.7534400000       0.9938500000
Li           0.3787300000       0.7534400000       0.0061500000
Li           0.6212700000       0.2465600000       0.9938500000
Li           0.5000000000       0.6619800000       0.2500000000
Li           0.0000000000       0.6619800000       0.7500000000
Li           0.0000000000       0.3380200000       0.2500000000
Li           0.0000000000       0.8380200000       0.7500000000
Li           0.0000000000       0.1619800000       0.2500000000
Li           0.5000000000       0.1619800000       0.7500000000
Li           0.5000000000       0.8380200000       0.2500000000
Li           0.7500000000       0.5000000000       0.0607300000
Li           0.2500000000       0.5000000000       0.9392700000
Li           0.2500000000       0.5000000000       0.4392700000
Li           0.7500000000       0.5000000000       0.5607300000
Li           0.2500000000       0.0000000000       0.0607300000
Li           0.7500000000       0.0000000000       0.9392700000
Li           0.7500000000       0.0000000000       0.4392700000
Li           0.2500000000       0.0000000000       0.5607300000
Li           0.7500000000       0.5000000000       0.3427100000
Li           0.2500000000       0.5000000000       0.6572900000
Li           0.2500000000       0.5000000000       0.1572900000
Li           0.7500000000       0.5000000000       0.8427100000
Li           0.2500000000       0.0000000000       0.3427100000
Li           0.7500000000       0.0000000000       0.6572900000
Li           0.7500000000       0.0000000000       0.1572900000
Li           0.2500000000       0.0000000000       0.8427100000
Li           0.8371600000       0.4102800000       0.3822800000
Li           0.1628400000       0.5897200000       0.6177200000
Li           0.6628400000       0.5897200000       0.3822800000
Li           0.3371600000       0.4102800000       0.6177200000
Li           0.1628400000       0.4102800000       0.1177200000
Li           0.8371600000       0.5897200000       0.8822800000
Li           0.3371600000       0.5897200000       0.1177200000
Li           0.6628400000       0.4102800000       0.8822800000
Li           0.3371600000       0.9102800000       0.3822800000
Li           0.6628400000       0.0897200000       0.6177200000
Li           0.1628400000       0.0897200000       0.3822800000
Li           0.8371600000       0.9102800000       0.6177200000
Li           0.6628400000       0.9102800000       0.1177200000
Li           0.3371600000       0.0897200000       0.8822800000
Li           0.8371600000       0.0897200000       0.1177200000
Li           0.1628400000       0.9102800000       0.8822800000
Ge           0.5223800000       0.3327500000       0.1123800000
Ge           0.4776200000       0.6672500000       0.8876200000
Ge           0.9776200000       0.6672500000       0.1123800000
Ge           0.0223800000       0.3327500000       0.8876200000
Ge           0.4776200000       0.3327500000       0.3876200000
Ge           0.5223800000       0.6672500000       0.6123800000
Ge           0.0223800000       0.6672500000       0.3876200000
Ge           0.9776200000       0.3327500000       0.6123800000
Ge           0.0223800000       0.8327500000       0.1123800000
Ge           0.9776200000       0.1672500000       0.8876200000
Ge           0.4776200000       0.1672500000       0.1123800000
Ge           0.5223800000       0.8327500000       0.8876200000
Ge           0.9776200000       0.8327500000       0.3876200000
Ge           0.0223800000       0.1672500000       0.6123800000
Ge           0.5223800000       0.1672500000       0.3876200000
Ge           0.4776200000       0.8327500000       0.6123800000
Ge           0.3008700000       0.3801600000       0.9509100000
Ge           0.6991300000       0.6198400000       0.0490900000
Ge           0.1991300000       0.6198400000       0.9509100000
Ge           0.8008700000       0.3801600000       0.0490900000
Ge           0.6991300000       0.3801600000       0.5490900000
Ge           0.3008700000       0.6198400000       0.4509100000
Ge           0.8008700000       0.6198400000       0.5490900000
Ge           0.1991300000       0.3801600000       0.4509100000
Ge           0.8008700000       0.8801600000       0.9509100000
Ge           0.1991300000       0.1198400000       0.0490900000
Ge           0.6991300000       0.1198400000       0.9509100000
Ge           0.3008700000       0.8801600000       0.0490900000
Ge           0.1991300000       0.8801600000       0.5490900000
Ge           0.8008700000       0.1198400000       0.4509100000
Ge           0.3008700000       0.1198400000       0.5490900000
Ge           0.6991300000       0.8801600000       0.4509100000
P            0.5000000000       0.4993100000       0.2500000000
P            0.5000000000       0.5006900000       0.7500000000
P            0.0000000000       0.5006900000       0.2500000000
P            0.0000000000       0.4993100000       0.7500000000
P            0.0000000000       0.9993100000       0.2500000000
P            0.0000000000       0.0006900000       0.7500000000
P            0.5000000000       0.0006900000       0.2500000000
P            0.5000000000       0.9993100000       0.7500000000
P            0.0000000000       0.7500000000       0.7500000000
P            0.0000000000       0.2500000000       0.2500000000
P            0.5000000000       0.2500000000       0.7500000000
P            0.5000000000       0.7500000000       0.2500000000
S            0.6360600000       0.2866100000       0.1405200000
S            0.3639400000       0.7133900000       0.8594800000
S            0.8639400000       0.7133900000       0.1405200000
S            0.1360600000       0.2866100000       0.8594800000
S            0.3639400000       0.2866100000       0.3594800000
S            0.6360600000       0.7133900000       0.6405200000
S            0.1360600000       0.7133900000       0.3594800000
S            0.8639400000       0.2866100000       0.6405200000
S            0.1360600000       0.7866100000       0.1405200000
S            0.8639400000       0.2133900000       0.8594800000
S            0.3639400000       0.2133900000       0.1405200000
S            0.6360600000       0.7866100000       0.8594800000
S            0.8639400000       0.7866100000       0.3594800000
S            0.1360600000       0.2133900000       0.6405200000
S            0.6360600000       0.2133900000       0.3594800000
S            0.3639400000       0.7866100000       0.6405200000
S            0.3587600000       0.3138300000       0.0707200000
S            0.6412400000       0.6861700000       0.9292800000
S            0.1412400000       0.6861700000       0.0707200000
S            0.8587600000       0.3138300000       0.9292800000
S            0.6412400000       0.3138300000       0.4292800000
S            0.3587600000       0.6861700000       0.5707200000
S            0.8587600000       0.6861700000       0.4292800000
S            0.1412400000       0.3138300000       0.5707200000
S            0.8587600000       0.8138300000       0.0707200000
S            0.1412400000       0.1861700000       0.9292800000
S            0.6412400000       0.1861700000       0.0707200000
S            0.3587600000       0.8138300000       0.9292800000
S            0.1412400000       0.8138300000       0.4292800000
S            0.8587600000       0.1861700000       0.5707200000
S            0.3587600000       0.1861700000       0.4292800000
S            0.6412400000       0.8138300000       0.5707200000
S            0.0925600000       0.3806700000       0.9768700000
S            0.9074400000       0.6193300000       0.0231300000
S            0.4074400000       0.6193300000       0.9768700000
S            0.5925600000       0.3806700000       0.0231300000
S            0.9074400000       0.3806700000       0.5231300000
S            0.0925600000       0.6193300000       0.4768700000
S            0.5925600000       0.6193300000       0.5231300000
S            0.4074400000       0.3806700000       0.4768700000
S            0.5925600000       0.8806700000       0.9768700000
S            0.4074400000       0.1193300000       0.0231300000
S            0.9074400000       0.1193300000       0.9768700000
S            0.0925600000       0.8806700000       0.0231300000
S            0.4074400000       0.8806700000       0.5231300000
S            0.5925600000       0.1193300000       0.4768700000
S            0.0925600000       0.1193300000       0.5231300000
S            0.9074400000       0.8806700000       0.4768700000
S            0.3326200000       0.3797800000       0.7675000000
S            0.6673800000       0.6202200000       0.2325000000
S            0.1673800000       0.6202200000       0.7675000000
S            0.8326200000       0.3797800000       0.2325000000
S            0.6673800000       0.3797800000       0.7325000000
S            0.3326200000       0.6202200000       0.2675000000
S            0.8326200000       0.6202200000       0.7325000000
S            0.1673800000       0.3797800000       0.2675000000
S            0.8326200000       0.8797800000       0.7675000000
S            0.1673800000       0.1202200000       0.2325000000
S            0.6673800000       0.1202200000       0.7675000000
S            0.3326200000       0.8797800000       0.2325000000
S            0.1673800000       0.8797800000       0.7325000000
S            0.8326200000       0.1202200000       0.2675000000
S            0.3326200000       0.1202200000       0.7325000000
S            0.6673800000       0.8797800000       0.2675000000
S            0.3099300000       0.4418200000       0.0409300000
S            0.6900700000       0.5581800000       0.9590700000
S            0.1900700000       0.5581800000       0.0409300000
S            0.8099300000       0.4418200000       0.9590700000
S            0.6900700000       0.4418200000       0.4590700000
S            0.3099300000       0.5581800000       0.5409300000
S            0.8099300000       0.5581800000       0.4590700000
S            0.1900700000       0.4418200000       0.5409300000
S            0.8099300000       0.9418200000       0.0409300000
S            0.1900700000       0.0581800000       0.9590700000
S            0.6900700000       0.0581800000       0.0409300000
S            0.3099300000       0.9418200000       0.9590700000
S            0.1900700000       0.9418200000       0.4590700000
S            0.8099300000       0.0581800000       0.5409300000
S            0.3099300000       0.0581800000       0.4590700000
S            0.6900700000       0.9418200000       0.5409300000
S            0.0000000000       0.6302600000       0.2500000000
S            0.0000000000       0.3697400000       0.7500000000
S            0.5000000000       0.3697400000       0.2500000000
S            0.5000000000       0.6302600000       0.7500000000
S            0.5000000000       0.1302600000       0.2500000000
S            0.5000000000       0.8697400000       0.7500000000
S            0.0000000000       0.8697400000       0.2500000000
S            0.0000000000       0.1302600000       0.7500000000
S            0.0668200000       0.4691700000       0.1384500000
S            0.9331800000       0.5308300000       0.8615500000
S            0.4331800000       0.5308300000       0.1384500000
S            0.5668200000       0.4691700000       0.8615500000
S            0.9331800000       0.4691700000       0.3615500000
S            0.0668200000       0.5308300000       0.6384500000
S            0.5668200000       0.5308300000       0.3615500000
S            0.4331800000       0.4691700000       0.6384500000
S            0.5668200000       0.9691700000       0.1384500000
S            0.4331800000       0.0308300000       0.8615500000
S            0.9331800000       0.0308300000       0.1384500000
S            0.0668200000       0.9691700000       0.8615500000
S            0.4331800000       0.9691700000       0.3615500000
S            0.5668200000       0.0308300000       0.6384500000
S            0.0668200000       0.0308300000       0.3615500000
S            0.9331800000       0.9691700000       0.6384500000
S            0.8805700000       0.5328500000       0.1842700000
S            0.1194300000       0.4671500000       0.8157300000
S            0.6194300000       0.4671500000       0.1842700000
S            0.3805700000       0.5328500000       0.8157300000
S            0.1194300000       0.5328500000       0.3157300000
S            0.8805700000       0.4671500000       0.6842700000
S            0.3805700000       0.4671500000       0.3157300000
S            0.6194300000       0.5328500000       0.6842700000
S            0.3805700000       0.0328500000       0.1842700000
S            0.6194300000       0.9671500000       0.8157300000
S            0.1194300000       0.9671500000       0.1842700000
S            0.8805700000       0.0328500000       0.8157300000
S            0.6194300000       0.0328500000       0.3157300000
S            0.3805700000       0.9671500000       0.6842700000
S            0.8805700000       0.9671500000       0.3157300000
S            0.1194300000       0.0328500000       0.6842700000
S            0.4111700000       0.2842100000       0.6572300000
S            0.5888300000       0.7157900000       0.3427700000
S            0.0888300000       0.7157900000       0.6572300000
S            0.9111700000       0.2842100000       0.3427700000
S            0.5888300000       0.2842100000       0.8427700000
S            0.4111700000       0.7157900000       0.1572300000
S            0.9111700000       0.7157900000       0.8427700000
S            0.0888300000       0.2842100000       0.1572300000
S            0.9111700000       0.7842100000       0.6572300000
S            0.0888300000       0.2157900000       0.3427700000
S            0.5888300000       0.2157900000       0.6572300000
S            0.4111700000       0.7842100000       0.3427700000
S            0.0888300000       0.7842100000       0.8427700000
S            0.9111700000       0.2157900000       0.1572300000
S            0.4111700000       0.2157900000       0.8427700000
S            0.5888300000       0.7842100000       0.1572300000
Li           0.5                0.3380             0.75
K_POINTS automatic
4 2 4 0 0 0

