&CONTROL
  calculation = 'scf'
  etot_conv_thr =   7.0000000000d-05
  forc_conv_thr =   1.0000000000d-04
  outdir = '../out/'
  prefix = 'aiida'
  pseudo_dir = '../pseudo/'
  tprnfor = .true.
  tstress = .true.
  verbosity = 'high'
/
&SYSTEM
  degauss =   1.4699723600d-01
  ecutrho =   3.2000000000d+02
  ecutwfc =   4.0000000000d+01
  space_group = 221
  A = 12.6019078721
  nat = 8
  nosym = .false.
  ntyp = 4
  occupations = 'smearing'
  smearing = 'cold'
/
&ELECTRONS
  conv_thr =   1.4000000000d-09
  electron_maxstep = 80
  mixing_beta =   4.0000000000d-01
/
&IONS
ion_dynamics = 'bfgs'
/
&CELL
cell_dynamics = 'bfgs'
press_conv_thr= 0.05
cell_dofree = 'all' 
/

ATOMIC_SPECIES
Cs     132.9054519 Cs_pbe_v1.uspp.F.UPF
I      126.90447 I.pbe-n-kjpaw_psl.0.2.UPF
Pb     207.2 Pb.pbe-dn-kjpaw_psl.0.2.2.UPF
Zn     65.38 zn_pbesol_v1.uspp.F.UPF
ATOMIC_POSITIONS crystal_sg
Cs           0.2500000000       0.2500000000       0.2500000000 
Zn           0.0000000000       0.0000000000       0.0000000000 
Pb           0.5000000000       0.0000000000       0.0000000000 
Pb           0.5000000000       0.0000000000       0.5000000000
Pb           0.5000000000       0.5000000000       0.5000000000  
I            0.2500000000       0.0000000000       0.0000000000 
I            0.5000000000       0.0000000000       0.2500000000 
I            0.5000000000       0.2500000000       0.5000000000 
K_POINTS automatic
4 4 4 0 0 0
