&CONTROL
  calculation = 'scf'
  etot_conv_thr =   4.0000000000d-04
  forc_conv_thr =   1.0000000000d-04
  outdir = './out/'
  prefix = 'aiida'
  pseudo_dir = './pseudo/'
  tprnfor = .true.
  tstress = .true.
  verbosity = 'high'
/
&SYSTEM
  degauss =   2.0000000000d-02
  ecutrho =   3.2000000000d+02
  ecutwfc =   4.0000000000d+01
  ibrav = 0
  nat = 40
  nosym = .false.
  ntyp = 4
  occupations = 'smearing'
  smearing = 'cold'
/
&ELECTRONS
  conv_thr =   8.0000000000d-09
  electron_maxstep = 80
  mixing_beta =   4.0000000000d-01
/
ATOMIC_SPECIES
Cs     132.9054519 cs_pbesol_v1.uspp.F.UPF
I      126.90447 I.pbesol-n-kjpaw_psl.0.2.UPF
Pb     207.2 Pb.pbesol-dn-kjpaw_psl.0.2.2.UPF
Zn     65.38 zn_pbesol_v1.uspp.F.UPF
ATOMIC_POSITIONS crystal
Cs           0.2500000000       0.2500000000       0.2500000000
Cs           0.7500000000       0.7500000000       0.7500000000
Cs           0.7500000000       0.7500000000       0.2500000000
Cs           0.2500000000       0.2500000000       0.7500000000
Cs           0.7500000000       0.2500000000       0.7500000000
Cs           0.2500000000       0.7500000000       0.2500000000
Cs           0.2500000000       0.7500000000       0.7500000000
Cs           0.7500000000       0.2500000000       0.2500000000
Zn           0.0000000000       0.0000000000       0.0000000000
Pb           0.5000000000       0.0000000000       0.0000000000
Pb           0.0000000000       0.5000000000       0.0000000000
Pb           0.0000000000       0.0000000000       0.5000000000
Pb           0.5000000000       0.0000000000       0.5000000000
Pb           0.5000000000       0.5000000000       0.0000000000
Pb           0.0000000000       0.5000000000       0.5000000000
Pb           0.5000000000       0.5000000000       0.5000000000
I            0.2500000000       0.0000000000       0.0000000000
I            0.7500000000       0.0000000000       0.0000000000
I            0.0000000000       0.2500000000       0.0000000000
I            0.0000000000       0.7500000000       0.0000000000
I            0.0000000000       0.0000000000       0.2500000000
I            0.0000000000       0.0000000000       0.7500000000
I            0.5000000000       0.0000000000       0.2500000000
I            0.5000000000       0.0000000000       0.7500000000
I            0.2500000000       0.5000000000       0.0000000000
I            0.7500000000       0.5000000000       0.0000000000
I            0.0000000000       0.2500000000       0.5000000000
I            0.0000000000       0.7500000000       0.5000000000
I            0.0000000000       0.5000000000       0.7500000000
I            0.0000000000       0.5000000000       0.2500000000
I            0.5000000000       0.2500000000       0.0000000000
I            0.5000000000       0.7500000000       0.0000000000
I            0.2500000000       0.0000000000       0.5000000000
I            0.7500000000       0.0000000000       0.5000000000
I            0.5000000000       0.2500000000       0.5000000000
I            0.5000000000       0.7500000000       0.5000000000
I            0.5000000000       0.5000000000       0.2500000000
I            0.5000000000       0.5000000000       0.7500000000
I            0.2500000000       0.5000000000       0.5000000000
I            0.7500000000       0.5000000000       0.5000000000
K_POINTS automatic
4 4 4 0 0 0
CELL_PARAMETERS angstrom
     12.6000000000       0.0000000000       0.0000000000
      0.0000000000      12.6000000000       0.0000000000
      0.0000000000       0.0000000000      12.6000000000
