&CONTROL
   calculation      = 'scf'
   verbosity        = 'high'
   tstress          = .true.
   tprnfor          = .true.
   outdir           = '../out/'
   prefix           = 'aiida'
   etot_conv_thr    = 7e-05
   forc_conv_thr    = 0.0001
   pseudo_dir       = '../pseudo/'
/
&SYSTEM
   a                = 12.6019078721
   nat              = 8
   ntyp             = 4
   ecutwfc          = 40.0
   ecutrho          = 320.0
   nosym            = .false.
   occupations      = 'smearing'
   degauss          = 0.146997236
   smearing         = 'cold'
   space_group      = 221
   ibrav            = 0
/
&ELECTRONS
   electron_maxstep = 80
   conv_thr         = 1.4e-09
   mixing_beta      = 0.4
/
&IONS
   ion_dynamics     = 'bfgs'
/
&CELL
   cell_dynamics    = 'bfgs'
   press_conv_thr   = 0.05
   cell_dofree      = 'all'
/
&FCP
/
&RISM
/
ATOMIC_SPECIES
Cs 132.90545196 Cs_pbe_v1.uspp.F.UPF
Zn 65.38 zn_pbesol_v1.uspp.F.UPF
Pb 207.2 Pb.pbe-dn-kjpaw_psl.0.2.2.UPF
I 126.90447 I.pbe-n-kjpaw_psl.0.2.UPF

K_POINTS automatic
4 4 4  0 0 0

CELL_PARAMETERS angstrom
0.00000000000000 0.00000000000000 0.00000000000000
0.00000000000000 0.00000000000000 0.00000000000000
0.00000000000000 0.00000000000000 0.00000000000000

ATOMIC_POSITIONS crystal
Cs 0.2500000000 0.2500000000 0.2500000000  
Zn 0.0000000000 0.0000000000 0.0000000000  
Pb 0.5000000000 0.0000000000 0.0000000000  
Pb 0.5000000000 0.0000000000 0.5000000000  
Pb 0.5000000000 0.5000000000 0.5000000000  
I 0.2500000000 0.0000000000 0.0000000000  
I 0.5000000000 0.0000000000 0.2500000000  
I 0.5000000000 0.2500000000 0.5000000000  

