&CONTROL
    calculation = 'vc-relax'
    pseudo_dir  = './pseudo/'
    tprnfor     = .TRUE.
    tstress     = .TRUE.
    outdir      = './out/'
    prefix      = 'aiida'
/

&SYSTEM
    a                         =  9.55267e+00
    c                         =  1.29783e+01
    degauss                   =  1.00000e-02
    ecutrho                   =  1.80000e+02
    ecutwfc                   =  2.00000e+01
    ibrav                     = 4
    nat                       = 27
    nosym                     = .FALSE.
    nspin                     = 1
    ntyp                      = 3
    occupations               = "smearing"
    smearing                  = "gaussian"   ! Changed to Gaussian
/

&ELECTRONS
    conv_thr         =  1.00000e-04   ! Reduced convergence threshold
    electron_maxstep = 200
    mixing_beta      =  4.00000e-01
    startingpot      = "atomic"
    startingwfc      = "atomic+random"
/

&IONS
    ion_dynamics = 'bfgs'
/

&CELL
    cell_dynamics = 'bfgs'
    press_conv_thr = 0.5
/

ATOMIC_SPECIES
W     183.84000  w_pbesol_v1.2.uspp.F.UPF
S     32.06600   s_pbesol_v1.4.uspp.F.UPF
Ni    58.69340   ni_pbesol_v1.4.uspp.F.UPF

ATOMIC_POSITIONS (angstrom)
W       0.000000   1.838410   6.489141
W      -1.592111   4.596028   6.489141
W      -3.184223   7.353646   6.489141
W       3.184223   1.838410   6.489141
Ni      1.592111   4.596028   6.489141
W       0.000000   7.353646   6.489141
W       6.368446   1.838410   6.489141
W       4.776334   4.596028   6.489141
W       3.184223   7.353646   6.489141
S       1.592110   0.919205   4.929152
S      -0.000002   3.676823   4.929152
S      -1.592113   6.434441   4.929152
S       4.776333   0.919205   4.929152
S       3.184221   3.676823   4.929152
S       1.592110   6.434441   4.929152
S       7.960556   0.919205   4.929152
S       6.368444   3.676823   4.929152
S       4.776333   6.434441   4.929152
S       1.592110   0.919205   8.049066
S      -0.000002   3.676823   8.049066
S      -1.592113   6.434441   8.049066
S       4.776333   0.919205   8.049066
S       3.184221   3.676823   8.049066
S       1.592110   6.434441   8.049066
S       7.960556   0.919205   8.049066
S       6.368444   3.676823   8.049066
S       4.776333   6.434441   8.049066

K_POINTS {automatic}
8 8 4 0 0 0
