&inputpp
prefix='Co',
outdir='../out/',
filplot = 'Co_valence'
plot_num= 0
/
&plot
nfile = 1
iflag = 3
output_format = 6
fileout = 'Co_valence.cube'
/