&CONTROL
  calculation = 'scf'
  etot_conv_thr =   2.0000000000d-05
  forc_conv_thr =   1.0000000000d-04
  outdir = '../out/'
  prefix = 'Co'
  pseudo_dir = '../pseudo/'
  tprnfor = .true.
  tstress = .true.
  verbosity = 'high'
/
&SYSTEM
  degauss =   2.0000000000d-02
  ecutrho =   3.6000000000d+02
  ecutwfc =   4.5000000000d+01
  ibrav = 0
  nat = 2
  nosym = .false.
  nspin = 2
  ntyp = 1
  occupations = 'smearing'
  smearing = 'cold'
  starting_magnetization(1) =   2.9411764706d-01
/
&ELECTRONS
  conv_thr =   4.0000000000d-10
  electron_maxstep = 80
  mixing_beta =   4.0000000000d-01
/
ATOMIC_SPECIES
Co     58.933195 Co_pbe_v1.2.uspp.F.UPF
ATOMIC_POSITIONS crystal
Co           0.3333333300       0.6666666700       0.2500000000
Co           0.6666666700       0.3333333300       0.7500000000
K_POINTS automatic
10 10 5 0 0 0
CELL_PARAMETERS angstrom
      2.4719999000       0.0000000000       0.0000000000
     -1.2359999500       2.1408147116       0.0000000000
      0.0000000000       0.0000000000       4.0211440800
