&CONTROL
  calculation = 'scf'
  etot_conv_thr =   6.0000000000d-05
  forc_conv_thr =   1.0000000000d-04
  outdir = './out/'
  prefix = 'aiida'
  pseudo_dir = './pseudo/'
  tprnfor = .true.
  tstress = .true.
  verbosity = 'high'
/

&SYSTEM
  ibrav = 4
  celldm(1) = 6.015  ! Lattice parameter a in Bohr (3.184 Å × 1.8897)
  celldm(3) = 1.278  ! c/a ratio (matches given value)
  nat = 3
  ntyp = 2
  ecutwfc = 50
  ecutrho = 200
  degauss = 0.02
  occupations = 'smearing'
  smearing = 'cold'
/

&ELECTRONS
  conv_thr = 1.2000000000d-09
  electron_maxstep = 80
  mixing_beta = 0.4
/

ATOMIC_SPECIES
S   32.065  s_pbesol_v1.4.uspp.F.UPF
W   183.84  w_pbesol_v1.2.uspp.F.UPF

ATOMIC_POSITIONS crystal
W   0.333333  0.666667  0.336545
S   0.000000  0.000000  0.636188
S   0.666667  0.333333  0.036877

K_POINTS automatic
12 12 4 0 0 0

